
Log started (V11.0.0) Fri May 16 20:43:35 2008

Tried aggregator 1 time.
Reduced MIP has 250 rows, 10001 columns, and 20050 nonzeros.
Presolve time =    0.08 sec.
Clique table members: 200.
MIP emphasis: balance optimality and feasibility.
MIP search method: dynamic search.
Parallel mode: none, using 1 thread.
Root relaxation solution time =    0.55 sec.

        Nodes                                         Cuts/
   Node  Left     Objective  IInf  Best Integer     Best Node    ItCnt     Gap

*     0+    0                        21955.0000      400.3799      671   98.18%
*     0+    0                          402.0000      400.3799      671    0.40%
      0     0      401.0000    54      402.0000      Fract: 3      686    0.25%
      0     0      401.0000    81      402.0000     Covers: 2      715    0.25%
      0     0      401.0000    86      402.0000     Covers: 1      731    0.25%
      0     2      401.0000    86      402.0000      401.0000      731    0.25%
    100    36      401.0000    71      402.0000      401.0000    27405    0.25%
    200    70      401.0000    84      402.0000      401.0000    38437    0.25%
    300   111    infeasible            402.0000      401.0000    43641    0.25%
    400   161      401.0000    64      402.0000      401.0000    50351    0.25%
    500   205    infeasible            402.0000      401.0000    71853    0.25%
    600   196    infeasible            402.0000      401.0000    85412    0.25%
    700   168      401.0000    69      402.0000      401.0000    95706    0.25%
    800    89      401.0000    67      402.0000      401.0000   122049    0.25%
    900   134      401.0000    69      402.0000      401.0000   133798    0.25%
   1000   194      401.0000    62      402.0000      401.0000   144895    0.25%
Elapsed time =  52.70 sec. (tree size =  1.27 MB, solutions = 2)
   1100   242    infeasible            402.0000      401.0000   157216    0.25%
   1200   290      401.0000    63      402.0000      401.0000   168126    0.25%
   1300   350      401.0000    74      402.0000      401.0000   178071    0.25%
   1400   394      401.0000    80      402.0000      401.0000   190090    0.25%
   1500   450    infeasible            402.0000      401.0000   199766    0.25%
   1600   512    infeasible            402.0000      401.0000   211499    0.25%
   1700   560    infeasible            402.0000      401.0000   226248    0.25%
   1800   606    infeasible            402.0000      401.0000   238339    0.25%
   1900   656      401.0000    69      402.0000      401.0000   252853    0.25%
   2000   716      401.0000    71      402.0000      401.0000   267661    0.25%
Elapsed time =  88.39 sec. (tree size =  4.83 MB, solutions = 2)
   2100   786    infeasible            402.0000      401.0000   278894    0.25%
   2200   838      401.0000    62      402.0000      401.0000   296043    0.25%
   2300   891      401.0000    63      402.0000      401.0000   307362    0.25%
   2400   951      401.0000    89      402.0000      401.0000   319949    0.25%
   2500  1013      401.0000    71      402.0000      401.0000   329136    0.25%
   2600  1087      401.0000    90      402.0000      401.0000   336720    0.25%
   2700  1165      401.0000    64      402.0000      401.0000   344262    0.25%
   2800  1233      401.0000    66      402.0000      401.0000   355080    0.25%
   2900  1293      401.0000    67      402.0000      401.0000   366357    0.25%
   3000  1365      401.0000    74      402.0000      401.0000   376227    0.25%
Elapsed time = 122.80 sec. (tree size =  9.45 MB, solutions = 2)
   3100  1439      401.0000    34      402.0000      401.0000   384322    0.25%
   3200  1513      401.0000    83      402.0000      401.0000   393902    0.25%
   3300  1567      401.0000    43      402.0000      401.0000   406694    0.25%
   3400  1627      401.0000    61      402.0000      401.0000   421657    0.25%
   3500  1681      401.0000    62      402.0000      401.0000   433184    0.25%
   3600  1757    infeasible            402.0000      401.0000   442009    0.25%
   3700  1827    infeasible            402.0000      401.0000   450749    0.25%
   3800  1897      401.0000    58      402.0000      401.0000   459753    0.25%
   3900  1965      401.0000    77      402.0000      401.0000   470525    0.25%
   4000  2023      401.0000    60      402.0000      401.0000   480486    0.25%
Elapsed time = 157.72 sec. (tree size = 14.27 MB, solutions = 2)
   4100  2101      401.0000    77      402.0000      401.0000   489210    0.25%
   4200  2175    infeasible            402.0000      401.0000   498645    0.25%
   4300  2235      401.0000    59      402.0000      401.0000   506648    0.25%
   4400  2303      401.0000    66      402.0000      401.0000   516643    0.25%
   4500  2339      401.0000    82      402.0000      401.0000   538924    0.25%
   4600  2421      401.0000    80      402.0000      401.0000   546115    0.25%
   4700  2497      401.0000    75      402.0000      401.0000   554227    0.25%
   4800  2581      401.0000   121      402.0000      401.0000   562641    0.25%
   4900  2655      401.0000   115      402.0000      401.0000   571051    0.25%
   5000  2709    infeasible            402.0000      401.0000   588525    0.25%
Elapsed time = 200.58 sec. (tree size = 19.98 MB, solutions = 2)
   5100  2747      401.0000   112      402.0000      401.0000   620660    0.25%
   5200  2679    infeasible            402.0000      401.0000   693726    0.25%
   5300  2579    infeasible            402.0000      401.0000   771479    0.25%
   5400  2479    infeasible            402.0000      401.0000   858035    0.25%
   5500  2379    infeasible            402.0000      401.0000   942317    0.25%
   5600  2279    infeasible            402.0000      401.0000  1015314    0.25%
   5700  2179    infeasible            402.0000      401.0000  1084139    0.25%
   5800  2079    infeasible            402.0000      401.0000  1152239    0.25%
   5900  1979    infeasible            402.0000      401.0000  1217596    0.25%
   6000  1879    infeasible            402.0000      401.0000  1280000    0.25%
Elapsed time = 406.09 sec. (tree size = 14.33 MB, solutions = 2)
   6100  1779    infeasible            402.0000      401.0000  1354332    0.25%
   6200  1679    infeasible            402.0000      401.0000  1416966    0.25%
   6300  1579    infeasible            402.0000      401.0000  1479772    0.25%
   6400  1479    infeasible            402.0000      401.0000  1551255    0.25%
   6500  1379    infeasible            402.0000      401.0000  1609246    0.25%
   6600  1279    infeasible            402.0000      401.0000  1660365    0.25%
   6700  1179    infeasible            402.0000      401.0000  1713599    0.25%
   6800  1079    infeasible            402.0000      401.0000  1766536    0.25%
   6900   979    infeasible            402.0000      401.0000  1825801    0.25%
   7000   879    infeasible            402.0000      401.0000  1873837    0.25%
Elapsed time = 567.80 sec. (tree size =  7.03 MB, solutions = 2)
   7100   779    infeasible            402.0000      401.0000  1919847    0.25%
   7200   679    infeasible            402.0000      401.0000  1963476    0.25%
   7300   579    infeasible            402.0000      401.0000  2007570    0.25%
   7400   479    infeasible            402.0000      401.0000  2057315    0.25%
   7500   379    infeasible            402.0000      401.0000  2097190    0.25%
   7600   279    infeasible            402.0000      401.0000  2145228    0.25%
   7700   179    infeasible            402.0000      401.0000  2202720    0.25%
   7800    79    infeasible            402.0000      401.0000  2263140    0.25%

Cover cuts applied:  304
Gomory fractional cuts applied:  11

Solution pool: 2 solutions saved.

MIP - Integer optimal solution:  Objective = 4.0200000000e+002
Solution time =  712.61 sec.  Iterations = 2308323  Nodes = 7880


Incumbent solution
Variable Name           Solution Value
Cmax                        402.000000
X_1_6                         1.000000
X_2_5                         1.000000
X_3_4                         1.000000
X_4_9                         1.000000
X_5_16                        1.000000
X_6_7                         1.000000
X_7_37                        1.000000
X_8_38                        1.000000
X_9_45                        1.000000
X_10_33                       1.000000
X_11_21                       1.000000
X_12_7                        1.000000
X_13_20                       1.000000
X_14_21                       1.000000
X_15_50                       1.000000
X_16_34                       1.000000
X_17_20                       1.000000
X_18_23                       1.000000
X_19_44                       1.000000
X_20_44                       1.000000
X_21_30                       1.000000
X_22_3                        1.000000
X_23_33                       1.000000
X_24_3                        1.000000
X_25_28                       1.000000
X_26_5                        1.000000
X_27_27                       1.000000
X_28_39                       1.000000
X_29_23                       1.000000
X_30_7                        1.000000
X_31_42                       1.000000
X_32_16                       1.000000
X_33_31                       1.000000
X_34_30                       1.000000
X_35_27                       1.000000
X_36_26                       1.000000
X_37_15                       1.000000
X_38_12                       1.000000
X_39_19                       1.000000
X_40_6                        1.000000
X_41_11                       1.000000
X_42_19                       1.000000
X_43_35                       1.000000
X_44_48                       1.000000
X_45_37                       1.000000
X_46_18                       1.000000
X_47_33                       1.000000
X_48_6                        1.000000
X_49_25                       1.000000
X_50_12                       1.000000
X_51_40                       1.000000
X_52_31                       1.000000
X_53_8                        1.000000
X_54_24                       1.000000
X_55_4                        1.000000
X_56_36                       1.000000
X_57_31                       1.000000
X_58_39                       1.000000
X_59_14                       1.000000
X_60_34                       1.000000
X_61_27                       1.000000
X_62_42                       1.000000
X_63_37                       1.000000
X_64_6                        1.000000
X_65_36                       1.000000
X_66_20                       1.000000
X_67_15                       1.000000
X_68_19                       1.000000
X_69_29                       1.000000
X_70_18                       1.000000
X_71_15                       1.000000
X_72_22                       1.000000
X_73_49                       1.000000
X_74_23                       1.000000
X_75_17                       1.000000
X_76_48                       1.000000
X_77_48                       1.000000
X_78_26                       1.000000
X_79_32                       1.000000
X_80_47                       1.000000
X_81_14                       1.000000
X_82_18                       1.000000
X_83_8                        1.000000
X_84_43                       1.000000
X_85_13                       1.000000
X_86_43                       1.000000
X_87_11                       1.000000
X_88_2                        1.000000
X_89_9                        1.000000
X_90_20                       1.000000
X_91_46                       1.000000
X_92_43                       1.000000
X_93_4                        1.000000
X_94_18                       1.000000
X_95_12                       1.000000
X_96_27                       1.000000
X_97_16                       1.000000
X_98_41                       1.000000
X_99_32                       1.000000
X_100_29                      1.000000
X_101_45                      1.000000
X_102_40                      1.000000
X_103_36                      1.000000
X_104_25                      1.000000
X_105_32                      1.000000
X_106_23                      1.000000
X_107_48                      1.000000
X_108_50                      1.000000
X_109_46                      1.000000
X_110_49                      1.000000
X_111_10                      1.000000
X_112_2                       1.000000
X_113_24                      1.000000
X_114_34                      1.000000
X_115_3                       1.000000
X_116_13                      1.000000
X_117_46                      1.000000
X_118_49                      1.000000
X_119_8                       1.000000
X_120_42                      1.000000
X_121_50                      1.000000
X_122_41                      1.000000
X_123_34                      1.000000
X_124_35                      1.000000
X_125_21                      1.000000
X_126_37                      1.000000
X_127_40                      1.000000
X_128_25                      1.000000
X_129_38                      1.000000
X_130_45                      1.000000
X_131_28                      1.000000
X_132_35                      1.000000
X_133_25                      1.000000
X_134_16                      1.000000
X_135_24                      1.000000
X_136_14                      1.000000
X_137_40                      1.000000
X_138_17                      1.000000
X_139_36                      1.000000
X_140_14                      1.000000
X_141_5                       1.000000
X_142_38                      1.000000
X_143_38                      1.000000
X_144_33                      1.000000
X_145_10                      1.000000
X_146_1                       1.000000
X_147_30                      1.000000
X_148_22                      1.000000
X_149_17                      1.000000
X_150_46                      1.000000
X_151_39                      1.000000
X_152_2                       1.000000
X_153_10                      1.000000
X_154_28                      1.000000
X_155_47                      1.000000
X_156_12                      1.000000
X_157_49                      1.000000
X_158_15                      1.000000
X_159_26                      1.000000
X_160_41                      1.000000
X_161_47                      1.000000
X_162_22                      1.000000
X_163_13                      1.000000
X_164_29                      1.000000
X_165_29                      1.000000
X_166_21                      1.000000
X_167_32                      1.000000
X_168_11                      1.000000
X_169_2                       1.000000
X_170_3                       1.000000
X_171_1                       1.000000
X_172_41                      1.000000
X_173_13                      1.000000
X_174_44                      1.000000
X_175_1                       1.000000
X_176_10                      1.000000
X_177_11                      1.000000
X_178_42                      1.000000
X_179_39                      1.000000
X_180_45                      1.000000
X_181_30                      1.000000
X_182_19                      1.000000
X_183_22                      1.000000
X_184_44                      1.000000
X_185_43                      1.000000
X_186_50                      1.000000
X_187_24                      1.000000
X_188_5                       1.000000
X_189_17                      1.000000
X_190_47                      1.000000
X_191_8                       1.000000
X_192_31                      1.000000
X_193_26                      1.000000
X_194_9                       1.000000
X_195_4                       1.000000
X_196_7                       1.000000
X_197_9                       1.000000
X_198_28                      1.000000
X_199_35                      1.000000
X_200_1                       1.000000
All other variables in the range 1-10001 are 0.
